SCIP Status        : solving was interrupted [time limit reached]
Total Time         :    3600.00
  solving          :    3600.00
  presolving       :       0.26 (included in solving)
  reading          :       0.00
  copying          :       1.54 (56 #copies) (minimal 0.00, maximal 0.05, average 0.03)
Original Problem   :
  Problem name     : bbbenchmark/g05_60.9.cut
  Variables        : 61 (60 binary, 0 integer, 0 implicit integer, 1 continuous)
  Constraints      : 1 initial, 1 maximal
  Objective        : minimize, 1 non-zeros (abs.min = 1, abs.max = 1)
Presolved Problem  :
  Problem name     : t_bbbenchmark/g05_60.9.cut
  Variables        : 946 (60 binary, 0 integer, 885 implicit integer, 1 continuous)
  Constraints      : 886 initial, 9860 maximal
  Objective        : minimize, 1 non-zeros (abs.min = 1, abs.max = 1)
  Nonzeros         : 3601 constraint, 122 clique table
Presolvers         :   ExecTime  SetupTime  Calls  FixedVars   AggrVars   ChgTypes  ChgBounds   AddHoles    DelCons    AddCons   ChgSides   ChgCoefs
  boundshift       :       0.00       0.00      0          0          0          0          0          0          0          0          0          0
  convertinttobin  :       0.00       0.00      0          0          0          0          0          0          0          0          0          0
  domcol           :       0.00       0.00      1          0          0          0          0          0          0          0          0          0
  dualagg          :       0.00       0.00      0          0          0          0          0          0          0          0          0          0
  dualcomp         :       0.00       0.00      1          0          0          0          0          0          0          0          0          0
  dualinfer        :       0.00       0.00      0          0          0          0          0          0          0          0          0          0
  dualsparsify     :       0.00       0.00      1          0          0          0          0          0          0          0          0          0
  gateextraction   :       0.00       0.00      0          0          0          0          0          0          0          0          0          0
  implics          :       0.00       0.00      2          0          0          0          0          0          0          0          0          0
  inttobinary      :       0.00       0.00      0          0          0          0          0          0          0          0          0          0
  qpkktref         :       0.00       0.00      0          0          0          0          0          0          0          0          0          0
  redvub           :       0.00       0.00      0          0          0          0          0          0          0          0          0          0
  sparsify         :       0.00       0.00      1          0          0          0          0          0          0          0          0          0
  stuffing         :       0.00       0.00      0          0          0          0          0          0          0          0          0          0
  trivial          :       0.01       0.00      4          0          0          0          0          0          0          0          0          0
  tworowbnd        :       0.00       0.00      0          0          0          0          0          0          0          0          0          0
  dualfix          :       0.00       0.00      4          0          0          0          0          0          0          0          0          0
  genvbounds       :       0.00       0.00      0          0          0          0          0          0          0          0          0          0
  probing          :       0.12       0.00      1          0          0          0          0          0          0          0          0          0
  pseudoobj        :       0.00       0.00      1          0          0          0          1          0          0          0          0          0
  symmetry         :       0.00       0.00      0          0          0          0          0          0          0          0          0          0
  vbounds          :       0.00       0.00      1          0          0          0          0          0          0          0          0          0
  and              :       0.00       0.01      2          0          0          0          0          0          0          0          0          0
  linear           :       0.00       0.00      2          0          0          0          0          0          0          0          0          0
  logicor          :       0.00       0.00      0          0          0          0          0          0          0          0          0          0
  nonlinear        :       0.12       0.00      5          0          0          0          1          0          0        885          0          0
  benders          :       0.00       0.00      0          0          0          0          0          0          0          0          0          0
  components       :       0.00       0.00      1          0          0          0          0          0          0          0          0          0
  root node        :          -          -      -          0          -          -         49          -          -          -          -          -
Constraints        :     Number  MaxNumber  #Separate #Propagate    #EnfoLP    #EnfoRelax  #EnfoPS    #Check   #ResProp    Cutoffs    DomReds       Cuts    Applied      Conss   Children
  benderslp        :          0          0          0          0      87986          0          0      10426          0          0          0          0          0          0          0
  integral         :          0          0          0          0      87986          0          0      10426          0          0      10487          0          0       4707     169788
  and              :        885        885      97822     575267         11          0          0         24     109347         35    3152609       1458       1335          0          0
  linear           :          1+         5        218     575232         11          0          0         22          2          0          1          0          0          0          0
  logicor          :          0+      8972          0     154196          0          0          0          0       1136        764        152          0          0          0          0
  benders          :          0          0          0          0         11          0          0         25          0          0          0          0          0          0          0
  countsols        :          0          0          0          0         11          0          0         25          0          0          0          0          0          0          0
  components       :          0          0          0          0          0          0          0          0          0          0          0          0          0          0          0
Constraint Timings :  TotalTime  SetupTime   Separate  Propagate     EnfoLP     EnfoPS     EnfoRelax   Check    ResProp    SB-Prop
  benderslp        :       0.09       0.00       0.00       0.00       0.09       0.00       0.00       0.00       0.00       0.00
  integral         :      54.83       0.00       0.00       0.00      54.81       0.00       0.00       0.02       0.00       0.00
  and              :      54.97       0.01      32.19      22.19       0.00       0.00       0.00       0.01       0.08       0.49
  linear           :       0.42       0.00       0.03       0.37       0.00       0.00       0.00       0.01       0.00       0.01
  logicor          :      24.89       0.00       0.00      24.83       0.00       0.00       0.00       0.00       0.00       0.06
  benders          :       0.00       0.00       0.00       0.00       0.00       0.00       0.00       0.00       0.00       0.00
  countsols        :       0.00       0.00       0.00       0.00       0.00       0.00       0.00       0.00       0.00       0.00
  components       :       0.16       0.00       0.00       0.16       0.00       0.00       0.00       0.00       0.00       0.00
Propagators        : #Propagate   #ResProp    Cutoffs    DomReds
  dualfix          :          4          0          0          0
  genvbounds       :          0          0          0          0
  nlobbt           :          0          0          0          0
  obbt             :          0          0          0          0
  probing          :          0          0          0          0
  pseudoobj        :     455602          0          0         49
  redcost          :     215569          0          0     448542
  rootredcost      :         19          0          0          0
  symmetry         :          0          0          0          0
  vbounds          :      46212          0          0          0
Propagator Timings :  TotalTime  SetupTime   Presolve  Propagate    ResProp    SB-Prop
  dualfix          :       0.00       0.00       0.00       0.00       0.00       0.00
  genvbounds       :       0.37       0.00       0.00       0.35       0.00       0.02
  nlobbt           :       0.00       0.00       0.00       0.00       0.00       0.00
  obbt             :       0.00       0.00       0.00       0.00       0.00       0.00
  probing          :       0.12       0.00       0.12       0.00       0.00       0.00
  pseudoobj        :       0.63       0.00       0.00       0.63       0.00       0.00
  redcost          :       7.34       0.00       0.00       7.34       0.00       0.00
  rootredcost      :       0.41       0.00       0.00       0.41       0.00       0.00
  symmetry         :       0.22       0.00       0.00       0.22       0.00       0.00
  vbounds          :       0.32       0.00       0.00       0.30       0.00       0.02
Conflict Analysis  :       Time      Calls    Success    DomReds  Conflicts   Literals    Reconvs ReconvLits   Dualrays   Nonzeros   LP Iters   (pool size: [10000,10000])
  propagation      :       0.00        799        535          -        666       25.8          0        0.0          -          -          -
  infeasible LP    :       0.00          0          0          -          0        0.0          0        0.0         15       37.1          0
  bound exceed. LP :      17.23      12804       9308          -      49273       31.8          6       20.8          0        0.0      71426
  strong branching :       0.00          0          0          -          0        0.0          0        0.0          -          -          0
  pseudo solution  :       0.00          0          0          -          0        0.0          0        0.0          -          -          -
  applied globally :       0.13          -          -          0      23375       31.5          -          -         15          -          -
  applied locally  :          -          -          -          0          0        0.0          -          -          0          -          -
Separators         :   ExecTime  SetupTime      Calls  RootCalls    Cutoffs    DomReds  FoundCuts ViaPoolAdd  DirectAdd    Applied ViaPoolApp  DirectApp      Conss
  cut pool         :       2.29          -      18338        251          -          -      20983     355287          -          -          -          -          -    (maximal pool size:       1205)
  aggregation      :      16.18       0.00       4275        218          0          0         25         13          0         11         11          0          0
  > cmir           :          -          -          -          -          -          -          -         13          0         11         11          0          -
  > flowcover      :          -          -          -          -          -          -          -          0          0          0          0          0          -
  > knapsackcover  :          -          -          -          -          -          -          -          0          0          0          0          0          -
  cgmip            :       0.00       0.00          0          0          0          0          0          0          0          0          0          0          0
  clique           :       0.00       0.00        218        218          0          0          0          0          0          0          0          0          0
  closecuts        :       0.00       0.00          0          0          0          0          0          0          0          0          0          0          0
  convexproj       :       0.00       0.00          0          0          0          0          0          0          0          0          0          0          0
  disjunctive      :       0.00       0.00          0          0          0          0          0          0          0          0          0          0          0
  eccuts           :       0.00       0.00          0          0          0          0          0          0          0          0          0          0          0
  gauge            :       0.00       0.00          0          0          0          0          0          0          0          0          0          0          0
  gomory           :       0.00       0.00          0          0          0          0          0          0          0          0          0          0          0
  > gomorymi       :          -          -          -          -          -          -          -          0          0          0          0          0          -
  > strongcg       :          -          -          -          -          -          -          -          0          0          0          0          0          -
  impliedbounds    :       0.16       0.00       4275        218          0          0         17          0          0          0          0          0          0
  interlattice     :       0.26       0.00        160        160          0          0        160          0        160        159          0        159          0
  interminor       :       0.00       0.00          0          0          0          0          0          0          0          0          0          0          0
  intersub         :       0.02       0.00          2          2          0          0          0          0          0          0          0          0          0
  intobj           :       0.00       0.00          0          0          0          0          0          0          0          0          0          0          0
  mcf              :       0.00       0.00          1          1          0          0          0          0          0          0          0          0          0
  minor            :       0.00       0.00          0          0          0          0          0          0          0          0          0          0          0
  mixing           :       0.00       0.00       4275        218          0          0          0          0          0          0          0          0          0
  oddcycle         :       0.00       0.00          0          0          0          0          0          0          0          0          0          0          0
  rapidlearning    :       0.01       0.00          0          0          0          0          0          0          0          0          0          0          0
  rlt              :       0.00       0.00         10         10          0          0          0          0          0          0          0          0          0
  zerohalf         :      16.83       0.00       3475         20          0          0      20941     355274          0      64526      64526          0          0
Cutselectors       :   ExecTime  SetupTime      Calls  RootCalls   Selected     Forced   Filtered  RootSelec   RootForc   RootFilt 
  hybrid           :       0.28       0.00      11304        217      66031          0     290874        365          0         16
Pricers            :   ExecTime  SetupTime      Calls       Vars
  problem variables:       0.00          -          0          0
Branching Rules    :   ExecTime  SetupTime   BranchLP  BranchExt   BranchPS    Cutoffs    DomReds       Cuts      Conss   Children
  allfullstrong    :       0.00       0.00          0          0          0          0          0          0          0          0
  cloud            :       0.00       0.00          0          0          0          0          0          0          0          0
  distribution     :       0.00       0.00          0          0          0          0          0          0          0          0
  fullstrong       :       0.00       0.00          0          0          0          0          0          0          0          0
  inference        :       0.00       0.00          0          0          0          0          0          0          0          0
  leastinf         :       0.00       0.00          0          0          0          0          0          0          0          0
  lookahead        :       0.00       0.00          0          0          0          0          0          0          0          0
  mostinf          :       0.00       0.00          0          0          0          0          0          0          0          0
  multaggr         :       0.00       0.00          0          0          0          0          0          0          0          0
  nodereopt        :       0.00       0.00          0          0          0          0          0          0          0          0
  pscost           :       0.00       0.00          0          0          0          0          0          0          0          0
  random           :       0.00       0.00          0          0          0          0          0          0          0          0
  relpscost        :      54.51       0.00      87975          0          0          0      10487          0       4725     169788
  vanillafullstrong:       0.00       0.00          0          0          0          0          0          0          0          0
Primal Heuristics  :   ExecTime  SetupTime      Calls      Found       Best
  LP solutions     :       0.00          -          -         11         11
  relax solutions  :       0.00          -          -          0          0
  pseudo solutions :       0.00          -          -          0          0
  strong branching :       0.02          -          -          0          0
  actconsdiving    :       0.00       0.00          0          0          0
  adaptivediving   :       2.39       0.00         98          0          0
  alns             :       2.09       0.00         26          4          3
  bound            :       0.00       0.00          0          0          0
  clique           :       0.01       0.00          1          0          0
  coefdiving       :       0.00       0.00          0          0          0
  completesol      :       0.00       0.00          0          0          0
  conflictdiving   :       7.90       0.00        450          0          0
  crossover        :       0.03       0.00          1          0          0
  dins             :       0.00       0.00          0          0          0
  distributiondivin:      24.04       0.00        450          1          1
  dps              :       0.00       0.00          0          0          0
  dualval          :       0.00       0.00          0          0          0
  farkasdiving     :       0.01       0.00          0          0          0
  feaspump         :       0.03       0.00          0          0          0
  fixandinfer      :       0.00       0.00          0          0          0
  fracdiving       :      13.84       0.00        450          0          0
  gins             :       0.05       0.00          0          0          0
  guideddiving     :      13.12       0.00        450          1          1
  indicator        :       0.06       0.00          0          0          0
  indicatordiving  :       0.00       0.00          0          0          0
  intdiving        :       0.00       0.00          0          0          0
  intshifting      :       0.14       0.00         23          0          0
  linesearchdiving :      12.25       0.00        450          0          0
  localbranching   :       0.00       0.00          0          0          0
  locks            :       0.00       0.00          1          0          0
  lpface           :       0.13       0.00          0          0          0
  mpec             :       2.54       0.00          1          0          0
  multistart       :       0.00       0.00          0          0          0
  mutation         :       0.00       0.00          0          0          0
  nlpdiving        :       4.10       0.00          7          0          0
  objpscostdiving  :      35.30       0.00        125          2          1
  octane           :       0.00       0.00          0          0          0
  ofins            :       0.15       0.00          0          0          0
  oneopt           :       0.12       0.00         29          0          0
  padm             :       0.00       0.00          0          0          0
  proximity        :       0.00       0.00          0          0          0
  pscostdiving     :      13.40       0.00        449          0          0
  randrounding     :       0.78       0.00      10397          0          0
  rens             :       0.00       0.00          0          0          0
  reoptsols        :       0.00       0.00          0          0          0
  repair           :       0.00       0.00          0          0          0
  rins             :       7.89       0.00         31          2          2
  rootsoldiving    :      20.10       0.00         70          1          0
  rounding         :       0.81       0.00       4302          0          0
  shiftandpropagate:       0.00       0.00          0          0          0
  shifting         :      25.90       0.00      12678          9          9
  simplerounding   :       0.11       0.00          0          0          0
  subnlp           :      85.50       0.00          0          0          0
  trivial          :       0.01       0.00          2          2          2
  trivialnegation  :       0.00       0.00          0          0          0
  trustregion      :       0.00       0.00          0          0          0
  trysol           :       0.13       0.00          0          0          0
  twoopt           :       0.00       0.00          0          0          0
  undercover       :       0.13       0.00          1          0          0
  vbounds          :       0.00       0.00          0          0          0
  veclendiving     :       6.47       0.00        450          0          0
  zeroobj          :       0.00       0.00          0          0          0
  zirounding       :       0.31       0.00       1000          0          0
  other solutions  :          -          -          -          0          -
Diving (single)    :      Calls      Nodes   LP Iters Backtracks  Conflicts   MinDepth   MaxDepth   AvgDepth  RoundSols  NLeafSols  MinSolDpt  MaxSolDpt  AvgSolDpt
  actconsdiving    :          0          -          -          -          -          -          -          -          -          -          -          -          -
  coefdiving       :          0          -          -          -          -          -          -          -          -          -          -          -          -
  conflictdiving   :        450       8056      63591        491       6334         24         45       32.0          0          -          -          -          -
  distributiondivin:        450       5508     158954        715       4801         21         35       26.0          0          1         34         34       34.0
  farkasdiving     :          0          -          -          -          -          -          -          -          -          -          -          -          -
  fracdiving       :        450      43137     125421        404       2341         26        252      110.2          0          -          -          -          -
  guideddiving     :        450      39148     125318        320       2175         30        220      101.5          0          1         69         69       69.0
  indicatordiving  :          0          -          -          -          -          -          -          -          -          -          -          -          -
  linesearchdiving :        450      10774     119371        587       7670         24         55       38.0          0          -          -          -          -
  pscostdiving     :        449       7643     145693        459       6086         22         47       31.3          0          -          -          -          -
  veclendiving     :        450       8092      42977        453       6418         25         48       32.2          0          -          -          -          -
Diving (adaptive)  :      Calls      Nodes   LP Iters Backtracks  Conflicts   MinDepth   MaxDepth   AvgDepth  RoundSols  NLeafSols  MinSolDpt  MaxSolDpt  AvgSolDpt
  actconsdiving    :         18        218       8338         32        204         21         31       25.0          0          -          -          -          -
  coefdiving       :         34        628       5487         35        697         26         40       31.8          0          -          -          -          -
  conflictdiving   :          0          -          -          -          -          -          -          -          -          -          -          -          -
  distributiondivin:          0          -          -          -          -          -          -          -          -          -          -          -          -
  farkasdiving     :          0          -          -          -          -          -          -          -          -          -          -          -          -
  fracdiving       :          7        747       1221          2          7         59        159      122.1          0          -          -          -          -
  guideddiving     :          6        520       1169          1          7         64        154      101.5          0          -          -          -          -
  indicatordiving  :          0          -          -          -          -          -          -          -          -          -          -          -          -
  linesearchdiving :         12        296       2786         12        153         27         50       38.8          0          -          -          -          -
  pscostdiving     :         10        167       2869         10        118         24         36       30.3          0          -          -          -          -
  veclendiving     :         11        194       1004         11        146         28         34       31.7          0          -          -          -          -
Neighborhoods      :      Calls  SetupTime  SolveTime SolveNodes       Sols       Best       Exp3  EpsGreedy        UCB TgtFixRate  Opt  Inf Node Stal  Sol  Usr Othr Actv
  rens             :          3       0.09       0.00          1          0          0    0.00000   -1.00000    0.37441      0.550    0    2    0    0    0    0    1    1
  rins             :          2       0.02       0.01          0          0          0    0.00000   -1.00000    0.30135      0.700    0    1    0    0    0    0    1    1
  mutation         :          5       0.23       0.26        121          1          1    0.00000   -1.00000    0.50557      0.459    1    3    0    1    0    0    0    1
  localbranching   :          2       0.11       0.00          1          0          0    0.00000   -1.00000    0.55008      0.550    0    2    0    0    0    0    0    1
  crossover        :          2       0.10       0.00          1          0          0    0.00000   -1.00000    0.55008      0.550    0    2    0    0    0    0    0    1
  proximity        :          4       0.18       0.30         81          2          1    0.00000   -1.00000    0.53804      0.522    1    2    0    1    0    0    0    1
  zeroobjective    :          5       0.25       0.20         83          1          1    0.00000   -1.00000    0.52840      0.459    1    3    0    1    0    0    0    1
  dins             :          3       0.09       0.01          1          0          0    0.00000   -1.00000    0.37441      0.550    0    2    0    0    0    0    1    1
  trustregion      :          0       0.00       0.00          0          0          0    0.00000   -1.00000    1.00000      0.900    0    0    0    0    0    0    0    0
Expressions        :   #IntEval  IntEvalTi   #RevProp  RevPropTi    DomReds    Cutoffs  #Estimate  EstimTime  Branching  #Simplify SimplifyTi Simplified
  pow              :          0       0.00          0       0.00          0          0          0       0.00          0          0       0.00          0
  prod             :       3540       0.00          0       0.00          0          0          0       0.00          0       2655       0.00          0
  sum              :          8       0.00          2       0.00          0          0          0       0.00          0          3       0.01          2
  var              :       3327       0.00          0       0.00          0          0          0       0.00          0       6378       0.00          0
  varidx           :          0       0.00          0       0.00          0          0          0       0.00          0          0       0.00          0
LP                 :       Time      Calls Iterations  Iter/call   Iter/sec  Time-0-It Calls-0-It    ItLimit
  primal LP        :     156.20      17344          0       0.00       0.00     156.15      17344
  dual LP          :    2843.36     202933   20864255     119.48    7337.89       8.70      28314
  lex dual LP      :       0.00          0          0       0.00          -
  barrier LP       :       0.00          0          0       0.00          -       0.00          0
  resolve instable :       0.00          0          0       0.00          -
  diving/probing LP:     115.10      11576    1236272     106.80   10740.85
  strong branching :      31.11       5356     378237      70.62   12158.05          -          -         92
    (at root node) :          -         20      10395     519.75          -
  conflict analysis:       9.59       7260      71426       9.84    7447.97
NLP relaxation     :
  solve time       :       4.10 (7 calls)
  convexity        :  nonconvex (1 linear rows, 0 convex ineq., 0 nonconvex ineq., 885 nonlinear eq. or two-sided ineq.)
NLP Solvers        :  #Problems  ProblemTi    #Solves  SolveTime      #Iter  Time/Iter      #Okay #TimeLimit #IterLimit #LObjLimit #Interrupt  #NumError #EvalError  #OutOfMem #LicenseEr #OtherTerm   #GlobOpt    #LocOpt  #Feasible #LocInfeas #GlobInfea #Unbounded   #Unknown
  ipopt            :          2       5.76         10       6.73        389       0.02         10          0          0          0          0          0          0          0          0          0          0          0          0          3          0          0          7
B&B Tree           :
  number of runs   :          1
  nodes            :     160383 (84894 internal, 75489 leaves)
  feasible leaves  :         11
  infeas. leaves   :        150
  objective leaves :      75328
  nodes (total)    :     160383 (84894 internal, 75489 leaves)
  nodes left       :       9354
  max depth        :         37
  max depth (total):         37
  backtracks       :      42884 (26.7%)
  early backtracks :          0 (0.0%)
  nodes exc. ref.  :          0 (0.0%)
  delayed cutoffs  :          3
  repropagations   :         62 (323 domain reductions, 1 cutoffs)
  avg switch length:       4.56
  switching time   :     193.36
Estim. Tree Size   :     705796
Estimation Tree    : 169789 nodes (160434 visited, 84894 internal, 75540 leaves, 9355 open), weight: 0.1842 completed 0.4978
Estimations        :      estim      value      trend resolution     smooth
  wbe              :     820227          -          -          -          -
  tree-profile     :         -1          -          -          -          -
  gap              :     705314    0.92256    0.00004        128     684785
  tree-weight      :     705796    0.18419    0.00038        128     710393
  leaf-frequency   :     618105    0.47084    0.00002        128     652831
  ssg              :     640238    0.32062   -0.00017        128     655236
  open-nodes       :     320868 9355.00000    0.00648        128     320629
Root Node          :
  First LP value   : -1.00000000000000e+00
  First LP Iters   :        638 (21266.67 Iter/sec)
  First LP Time    :       0.03
  Final Dual Bound : -8.71971939564304e-01
  Final Root Iters :       6246
  Root LP Estimate : -5.24070244100878e-01
Solution           :
  Solutions found  :         33 (30 improvements)
  First Solution   : +1.00000000000000e+05   (in run 1, after 0 nodes, 0.00 seconds, depth 0, found by <trivial>)
  Gap First Sol.   :   infinite
  Gap Last Sol.    :      27.30 %
  Primal Bound     : -6.02259887005650e-01   (in run 1, after 9929 nodes, 108.91 seconds, depth 35, found by <relaxation>)
  Dual Bound       : -6.52816232866283e-01
  Gap              :       8.39 %
Integrals          :      Total       Avg%
  primal-dual      :   43917.25      12.20
  primal-ref       :          -          - (not evaluated)
  dual-ref         :          -          - (not evaluated)
